robust/generate/spp_dkp_Lefebvre_et_al_2026/src/shortest_path_10_3.kp
45
339

[4.66 2.59 1.33 0.36 2.09 2.23 0.23 0.77 0.55 2.95 4.03 3.06 4.66 2.21 2.91 1.33 4.6 3.17 2.07 1.36 2.4 0.53 1.07 2.25 1.14 1.83 3.86 0.35 4.35 1.06 3.33 0.52 2.83 1.92 3.94 1.18 2.16 2.62 1.19 0.52 3.42 1.46 3.89 2.13 0.44 4.18 3.49 0.57 4.03 0.32 0.87 0.81 4.34 3.14 1.2 1.18 4.63 3.2 1.89 0.3 2.09 0.98 1.52 3.06 3.41 2.21 0.88 1.4 0.66 0.45 2.32 4.66]

[95 88 12 76 14 58 23 38 32 19 93 67 57 55 67 49 41 8 58 96 3 73 91 73 48 45 88 92 56 61 48 82 41 48 4 36 33 100 70 47 13 99 67 9 36 22 78 70 20 47 56 8 10 18 47 9 13 96 87 62 13 91 71 74 35 30 73 29 56 61 81 67]
