robust/generate/spp_dkp_Lefebvre_et_al_2026/src/shortest_path_10_3.lp
\ Model sp_10_3
\ LP format - for model browsing. Use MPS format to capture full model detail.
\ Signature: 0xe108111d0dabced
Minimize
  35 y[0,1] + 28.3 y[0,2] + 51.79 y[0,3] + 26.25 y[0,4] + 51.09 y[0,5]
   + 38.05 y[0,6] + 42.3 y[0,7] + 69.3 y[0,8] + 63.64 y[0,9] + 35 y[1,0]
   + 52.35 y[1,2] + 35.51 y[1,3] + 60.42 y[1,4] + 63.6 y[1,5]
   + 31.06 y[1,6] + 67.07 y[1,7] + 35 y[1,8] + 29.41 y[1,9] + 28.3 y[2,0]
   + 52.35 y[2,1] + 48.84 y[2,3] + 23.02 y[2,4] + 25.63 y[2,5]
   + 34.71 y[2,6] + 63.95 y[2,7] + 75.24 y[2,9] + 51.79 y[3,0]
   + 35.51 y[3,1] + 48.84 y[3,2] + 68.1 y[3,4] + 43.68 y[3,5]
   + 14.76 y[3,6] + 40.05 y[3,8] + 36.5 y[3,9] + 26.25 y[4,0]
   + 60.42 y[4,1] + 23.02 y[4,2] + 68.1 y[4,3] + 47.68 y[4,5]
   + 53.34 y[4,6] + 45.34 y[4,7] + 51.09 y[5,0] + 63.6 y[5,1]
   + 25.63 y[5,2] + 43.68 y[5,3] + 47.68 y[5,4] + 35.01 y[5,6]
   + 78.23 y[5,9] + 38.05 y[6,0] + 31.06 y[6,1] + 34.71 y[6,2]
   + 14.76 y[6,3] + 53.34 y[6,4] + 35.01 y[6,5] + 48.27 y[6,8]
   + 43.57 y[6,9] + 42.3 y[7,0] + 67.07 y[7,1] + 63.95 y[7,2]
   + 45.34 y[7,4] + 69.3 y[8,0] + 35 y[8,1] + 40.05 y[8,3] + 48.27 y[8,6]
   + 5.66 y[8,9] + 63.64 y[9,0] + 29.41 y[9,1] + 75.24 y[9,2] + 36.5 y[9,3]
   + 78.23 y[9,5] + 43.57 y[9,6] + 5.66 y[9,8] + 3.5 r[0,1] + 2.83 r[0,2]
   + 5.179 r[0,3] + 2.625 r[0,4] + 5.109 r[0,5] + 3.805 r[0,6]
   + 4.23 r[0,7] + 6.93 r[0,8] + 6.364 r[0,9] + 3.5 r[1,0] + 5.235 r[1,2]
   + 3.551 r[1,3] + 6.042 r[1,4] + 6.36 r[1,5] + 3.106 r[1,6]
   + 6.707 r[1,7] + 3.5 r[1,8] + 2.941 r[1,9] + 2.83 r[2,0] + 5.235 r[2,1]
   + 4.884 r[2,3] + 2.302 r[2,4] + 2.563 r[2,5] + 3.471 r[2,6]
   + 6.395 r[2,7] + 7.524 r[2,9] + 5.179 r[3,0] + 3.551 r[3,1]
   + 4.884 r[3,2] + 6.81 r[3,4] + 4.368 r[3,5] + 1.476 r[3,6]
   + 4.005 r[3,8] + 3.65 r[3,9] + 2.625 r[4,0] + 6.042 r[4,1]
   + 2.302 r[4,2] + 6.81 r[4,3] + 4.768 r[4,5] + 5.334 r[4,6]
   + 4.534 r[4,7] + 5.109 r[5,0] + 6.36 r[5,1] + 2.563 r[5,2]
   + 4.368 r[5,3] + 4.768 r[5,4] + 3.501 r[5,6] + 7.823 r[5,9]
   + 3.805 r[6,0] + 3.106 r[6,1] + 3.471 r[6,2] + 1.476 r[6,3]
   + 5.334 r[6,4] + 3.501 r[6,5] + 4.827 r[6,8] + 4.357 r[6,9]
   + 4.23 r[7,0] + 6.707 r[7,1] + 6.395 r[7,2] + 4.534 r[7,4] + 6.93 r[8,0]
   + 3.5 r[8,1] + 4.005 r[8,3] + 4.827 r[8,6] + 0.566 r[8,9] + 6.364 r[9,0]
   + 2.941 r[9,1] + 7.524 r[9,2] + 3.65 r[9,3] + 7.823 r[9,5]
   + 4.357 r[9,6] + 0.566 r[9,8]
Subject To
 flow_cons_inner_nodes[0]: - y[0,1] - y[0,2] - y[0,3] - y[0,4] - y[0,5]
   - y[0,6] - y[0,7] - y[0,8] - y[0,9] + y[1,0] + y[2,0] + y[3,0] + y[4,0]
   + y[5,0] + y[6,0] + y[7,0] + y[8,0] + y[9,0] = 0
 flow_cons_inner_nodes[1]: y[0,1] - y[1,0] - y[1,2] - y[1,3] - y[1,4]
   - y[1,5] - y[1,6] - y[1,7] - y[1,8] - y[1,9] + y[2,1] + y[3,1] + y[4,1]
   + y[5,1] + y[6,1] + y[7,1] + y[8,1] + y[9,1] = 0
 flow_cons_inner_nodes[2]: y[0,2] + y[1,2] - y[2,0] - y[2,1] - y[2,3]
   - y[2,4] - y[2,5] - y[2,6] - y[2,7] - y[2,9] + y[3,2] + y[4,2] + y[5,2]
   + y[6,2] + y[7,2] + y[9,2] = 0
 flow_cons_inner_nodes[3]: y[0,3] + y[1,3] + y[2,3] - y[3,0] - y[3,1]
   - y[3,2] - y[3,4] - y[3,5] - y[3,6] - y[3,8] - y[3,9] + y[4,3] + y[5,3]
   + y[6,3] + y[8,3] + y[9,3] = 0
 flow_cons_inner_nodes[4]: y[0,4] + y[1,4] + y[2,4] + y[3,4] - y[4,0]
   - y[4,1] - y[4,2] - y[4,3] - y[4,5] - y[4,6] - y[4,7] + y[5,4] + y[6,4]
   + y[7,4] = 0
 flow_cons_inner_nodes[5]: y[0,5] + y[1,5] + y[2,5] + y[3,5] + y[4,5]
   - y[5,0] - y[5,1] - y[5,2] - y[5,3] - y[5,4] - y[5,6] - y[5,9] + y[6,5]
   + y[9,5] = 0
 flow_cons_inner_nodes[6]: y[0,6] + y[1,6] + y[2,6] + y[3,6] + y[4,6]
   + y[5,6] - y[6,0] - y[6,1] - y[6,2] - y[6,3] - y[6,4] - y[6,5] - y[6,8]
   - y[6,9] + y[8,6] + y[9,6] = 0
 flow_cons_inner_nodes[9]: y[0,9] + y[1,9] + y[2,9] + y[3,9] + y[5,9]
   + y[6,9] + y[8,9] - y[9,0] - y[9,1] - y[9,2] - y[9,3] - y[9,5] - y[9,6]
   - y[9,8] = 0
 flow_cons_source: - y[0,7] - y[1,7] - y[2,7] - y[4,7] + y[7,0] + y[7,1]
   + y[7,2] + y[7,4] = 1
 flow_cons_target: y[0,8] + y[1,8] + y[3,8] + y[6,8] - y[8,0] - y[8,1]
   - y[8,3] - y[8,6] - y[8,9] + y[9,8] = 1
 primal_lower: - 4.66 y[0,1] - 2.59 y[0,2] - 1.33 y[0,3] - 0.36 y[0,4]
   - 2.09 y[0,5] - 2.23 y[0,6] - 0.23 y[0,7] - 0.77 y[0,8] - 0.55 y[0,9]
   - 2.95 y[1,0] - 4.03 y[1,2] - 3.06 y[1,3] - 4.66 y[1,4] - 2.21 y[1,5]
   - 2.91 y[1,6] - 1.33 y[1,7] - 4.6 y[1,8] - 3.17 y[1,9] - 2.07 y[2,0]
   - 1.36 y[2,1] - 2.4 y[2,3] - 0.53 y[2,4] - 1.07 y[2,5] - 2.25 y[2,6]
   - 1.14 y[2,7] - 1.83 y[2,9] - 3.86 y[3,0] - 0.35 y[3,1] - 4.35 y[3,2]
   - 1.06 y[3,4] - 3.33 y[3,5] - 0.52 y[3,6] - 2.83 y[3,8] - 1.92 y[3,9]
   - 3.94 y[4,0] - 1.18 y[4,1] - 2.16 y[4,2] - 2.62 y[4,3] - 1.19 y[4,5]
   - 0.52 y[4,6] - 3.42 y[4,7] - 1.46 y[5,0] - 3.89 y[5,1] - 2.13 y[5,2]
   - 0.44 y[5,3] - 4.18 y[5,4] - 3.49 y[5,6] - 0.57 y[5,9] - 4.03 y[6,0]
   - 0.32 y[6,1] - 0.87 y[6,2] - 0.81 y[6,3] - 4.34 y[6,4] - 3.14 y[6,5]
   - 1.2 y[6,8] - 1.18 y[6,9] - 4.63 y[7,0] - 3.2 y[7,1] - 1.89 y[7,2]
   - 0.3 y[7,4] - 2.09 y[8,0] - 0.98 y[8,1] - 1.52 y[8,3] - 3.06 y[8,6]
   - 3.41 y[8,9] - 2.21 y[9,0] - 0.88 y[9,1] - 1.4 y[9,2] - 0.66 y[9,3]
   - 0.45 y[9,5] - 2.32 y[9,6] - 4.66 y[9,8] + 95 u[0,1] + 88 u[0,2]
   + 12 u[0,3] + 76 u[0,4] + 14 u[0,5] + 58 u[0,6] + 23 u[0,7] + 38 u[0,8]
   + 32 u[0,9] + 19 u[1,0] + 93 u[1,2] + 67 u[1,3] + 57 u[1,4] + 55 u[1,5]
   + 67 u[1,6] + 49 u[1,7] + 41 u[1,8] + 8 u[1,9] + 58 u[2,0] + 96 u[2,1]
   + 3 u[2,3] + 73 u[2,4] + 91 u[2,5] + 73 u[2,6] + 48 u[2,7] + 45 u[2,9]
   + 88 u[3,0] + 92 u[3,1] + 56 u[3,2] + 61 u[3,4] + 48 u[3,5] + 82 u[3,6]
   + 41 u[3,8] + 48 u[3,9] + 4 u[4,0] + 36 u[4,1] + 33 u[4,2] + 100 u[4,3]
   + 70 u[4,5] + 47 u[4,6] + 13 u[4,7] + 99 u[5,0] + 67 u[5,1] + 9 u[5,2]
   + 36 u[5,3] + 22 u[5,4] + 78 u[5,6] + 70 u[5,9] + 20 u[6,0] + 47 u[6,1]
   + 56 u[6,2] + 8 u[6,3] + 10 u[6,4] + 18 u[6,5] + 47 u[6,8] + 9 u[6,9]
   + 13 u[7,0] + 96 u[7,1] + 87 u[7,2] + 62 u[7,4] + 13 u[8,0] + 91 u[8,1]
   + 71 u[8,3] + 74 u[8,6] + 35 u[8,9] + 30 u[9,0] + 73 u[9,1] + 29 u[9,2]
   + 56 u[9,3] + 61 u[9,5] + 81 u[9,6] + 67 u[9,8] <= 339
 mccormick1[0,1]: - u[0,1] + r[0,1] <= 0
 mccormick1[0,2]: - u[0,2] + r[0,2] <= 0
 mccormick1[0,3]: - u[0,3] + r[0,3] <= 0
 mccormick1[0,4]: - u[0,4] + r[0,4] <= 0
 mccormick1[0,5]: - u[0,5] + r[0,5] <= 0
 mccormick1[0,6]: - u[0,6] + r[0,6] <= 0
 mccormick1[0,7]: - u[0,7] + r[0,7] <= 0
 mccormick1[0,8]: - u[0,8] + r[0,8] <= 0
 mccormick1[0,9]: - u[0,9] + r[0,9] <= 0
 mccormick1[1,0]: - u[1,0] + r[1,0] <= 0
 mccormick1[1,2]: - u[1,2] + r[1,2] <= 0
 mccormick1[1,3]: - u[1,3] + r[1,3] <= 0
 mccormick1[1,4]: - u[1,4] + r[1,4] <= 0
 mccormick1[1,5]: - u[1,5] + r[1,5] <= 0
 mccormick1[1,6]: - u[1,6] + r[1,6] <= 0
 mccormick1[1,7]: - u[1,7] + r[1,7] <= 0
 mccormick1[1,8]: - u[1,8] + r[1,8] <= 0
 mccormick1[1,9]: - u[1,9] + r[1,9] <= 0
 mccormick1[2,0]: - u[2,0] + r[2,0] <= 0
 mccormick1[2,1]: - u[2,1] + r[2,1] <= 0
 mccormick1[2,3]: - u[2,3] + r[2,3] <= 0
 mccormick1[2,4]: - u[2,4] + r[2,4] <= 0
 mccormick1[2,5]: - u[2,5] + r[2,5] <= 0
 mccormick1[2,6]: - u[2,6] + r[2,6] <= 0
 mccormick1[2,7]: - u[2,7] + r[2,7] <= 0
 mccormick1[2,9]: - u[2,9] + r[2,9] <= 0
 mccormick1[3,0]: - u[3,0] + r[3,0] <= 0
 mccormick1[3,1]: - u[3,1] + r[3,1] <= 0
 mccormick1[3,2]: - u[3,2] + r[3,2] <= 0
 mccormick1[3,4]: - u[3,4] + r[3,4] <= 0
 mccormick1[3,5]: - u[3,5] + r[3,5] <= 0
 mccormick1[3,6]: - u[3,6] + r[3,6] <= 0
 mccormick1[3,8]: - u[3,8] + r[3,8] <= 0
 mccormick1[3,9]: - u[3,9] + r[3,9] <= 0
 mccormick1[4,0]: - u[4,0] + r[4,0] <= 0
 mccormick1[4,1]: - u[4,1] + r[4,1] <= 0
 mccormick1[4,2]: - u[4,2] + r[4,2] <= 0
 mccormick1[4,3]: - u[4,3] + r[4,3] <= 0
 mccormick1[4,5]: - u[4,5] + r[4,5] <= 0
 mccormick1[4,6]: - u[4,6] + r[4,6] <= 0
 mccormick1[4,7]: - u[4,7] + r[4,7] <= 0
 mccormick1[5,0]: - u[5,0] + r[5,0] <= 0
 mccormick1[5,1]: - u[5,1] + r[5,1] <= 0
 mccormick1[5,2]: - u[5,2] + r[5,2] <= 0
 mccormick1[5,3]: - u[5,3] + r[5,3] <= 0
 mccormick1[5,4]: - u[5,4] + r[5,4] <= 0
 mccormick1[5,6]: - u[5,6] + r[5,6] <= 0
 mccormick1[5,9]: - u[5,9] + r[5,9] <= 0
 mccormick1[6,0]: - u[6,0] + r[6,0] <= 0
 mccormick1[6,1]: - u[6,1] + r[6,1] <= 0
 mccormick1[6,2]: - u[6,2] + r[6,2] <= 0
 mccormick1[6,3]: - u[6,3] + r[6,3] <= 0
 mccormick1[6,4]: - u[6,4] + r[6,4] <= 0
 mccormick1[6,5]: - u[6,5] + r[6,5] <= 0
 mccormick1[6,8]: - u[6,8] + r[6,8] <= 0
 mccormick1[6,9]: - u[6,9] + r[6,9] <= 0
 mccormick1[7,0]: - u[7,0] + r[7,0] <= 0
 mccormick1[7,1]: - u[7,1] + r[7,1] <= 0
 mccormick1[7,2]: - u[7,2] + r[7,2] <= 0
 mccormick1[7,4]: - u[7,4] + r[7,4] <= 0
 mccormick1[8,0]: - u[8,0] + r[8,0] <= 0
 mccormick1[8,1]: - u[8,1] + r[8,1] <= 0
 mccormick1[8,3]: - u[8,3] + r[8,3] <= 0
 mccormick1[8,6]: - u[8,6] + r[8,6] <= 0
 mccormick1[8,9]: - u[8,9] + r[8,9] <= 0
 mccormick1[9,0]: - u[9,0] + r[9,0] <= 0
 mccormick1[9,1]: - u[9,1] + r[9,1] <= 0
 mccormick1[9,2]: - u[9,2] + r[9,2] <= 0
 mccormick1[9,3]: - u[9,3] + r[9,3] <= 0
 mccormick1[9,5]: - u[9,5] + r[9,5] <= 0
 mccormick1[9,6]: - u[9,6] + r[9,6] <= 0
 mccormick1[9,8]: - u[9,8] + r[9,8] <= 0
 mccormick2[0,1]: - y[0,1] + r[0,1] <= 0
 mccormick2[0,2]: - y[0,2] + r[0,2] <= 0
 mccormick2[0,3]: - y[0,3] + r[0,3] <= 0
 mccormick2[0,4]: - y[0,4] + r[0,4] <= 0
 mccormick2[0,5]: - y[0,5] + r[0,5] <= 0
 mccormick2[0,6]: - y[0,6] + r[0,6] <= 0
 mccormick2[0,7]: - y[0,7] + r[0,7] <= 0
 mccormick2[0,8]: - y[0,8] + r[0,8] <= 0
 mccormick2[0,9]: - y[0,9] + r[0,9] <= 0
 mccormick2[1,0]: - y[1,0] + r[1,0] <= 0
 mccormick2[1,2]: - y[1,2] + r[1,2] <= 0
 mccormick2[1,3]: - y[1,3] + r[1,3] <= 0
 mccormick2[1,4]: - y[1,4] + r[1,4] <= 0
 mccormick2[1,5]: - y[1,5] + r[1,5] <= 0
 mccormick2[1,6]: - y[1,6] + r[1,6] <= 0
 mccormick2[1,7]: - y[1,7] + r[1,7] <= 0
 mccormick2[1,8]: - y[1,8] + r[1,8] <= 0
 mccormick2[1,9]: - y[1,9] + r[1,9] <= 0
 mccormick2[2,0]: - y[2,0] + r[2,0] <= 0
 mccormick2[2,1]: - y[2,1] + r[2,1] <= 0
 mccormick2[2,3]: - y[2,3] + r[2,3] <= 0
 mccormick2[2,4]: - y[2,4] + r[2,4] <= 0
 mccormick2[2,5]: - y[2,5] + r[2,5] <= 0
 mccormick2[2,6]: - y[2,6] + r[2,6] <= 0
 mccormick2[2,7]: - y[2,7] + r[2,7] <= 0
 mccormick2[2,9]: - y[2,9] + r[2,9] <= 0
 mccormick2[3,0]: - y[3,0] + r[3,0] <= 0
 mccormick2[3,1]: - y[3,1] + r[3,1] <= 0
 mccormick2[3,2]: - y[3,2] + r[3,2] <= 0
 mccormick2[3,4]: - y[3,4] + r[3,4] <= 0
 mccormick2[3,5]: - y[3,5] + r[3,5] <= 0
 mccormick2[3,6]: - y[3,6] + r[3,6] <= 0
 mccormick2[3,8]: - y[3,8] + r[3,8] <= 0
 mccormick2[3,9]: - y[3,9] + r[3,9] <= 0
 mccormick2[4,0]: - y[4,0] + r[4,0] <= 0
 mccormick2[4,1]: - y[4,1] + r[4,1] <= 0
 mccormick2[4,2]: - y[4,2] + r[4,2] <= 0
 mccormick2[4,3]: - y[4,3] + r[4,3] <= 0
 mccormick2[4,5]: - y[4,5] + r[4,5] <= 0
 mccormick2[4,6]: - y[4,6] + r[4,6] <= 0
 mccormick2[4,7]: - y[4,7] + r[4,7] <= 0
 mccormick2[5,0]: - y[5,0] + r[5,0] <= 0
 mccormick2[5,1]: - y[5,1] + r[5,1] <= 0
 mccormick2[5,2]: - y[5,2] + r[5,2] <= 0
 mccormick2[5,3]: - y[5,3] + r[5,3] <= 0
 mccormick2[5,4]: - y[5,4] + r[5,4] <= 0
 mccormick2[5,6]: - y[5,6] + r[5,6] <= 0
 mccormick2[5,9]: - y[5,9] + r[5,9] <= 0
 mccormick2[6,0]: - y[6,0] + r[6,0] <= 0
 mccormick2[6,1]: - y[6,1] + r[6,1] <= 0
 mccormick2[6,2]: - y[6,2] + r[6,2] <= 0
 mccormick2[6,3]: - y[6,3] + r[6,3] <= 0
 mccormick2[6,4]: - y[6,4] + r[6,4] <= 0
 mccormick2[6,5]: - y[6,5] + r[6,5] <= 0
 mccormick2[6,8]: - y[6,8] + r[6,8] <= 0
 mccormick2[6,9]: - y[6,9] + r[6,9] <= 0
 mccormick2[7,0]: - y[7,0] + r[7,0] <= 0
 mccormick2[7,1]: - y[7,1] + r[7,1] <= 0
 mccormick2[7,2]: - y[7,2] + r[7,2] <= 0
 mccormick2[7,4]: - y[7,4] + r[7,4] <= 0
 mccormick2[8,0]: - y[8,0] + r[8,0] <= 0
 mccormick2[8,1]: - y[8,1] + r[8,1] <= 0
 mccormick2[8,3]: - y[8,3] + r[8,3] <= 0
 mccormick2[8,6]: - y[8,6] + r[8,6] <= 0
 mccormick2[8,9]: - y[8,9] + r[8,9] <= 0
 mccormick2[9,0]: - y[9,0] + r[9,0] <= 0
 mccormick2[9,1]: - y[9,1] + r[9,1] <= 0
 mccormick2[9,2]: - y[9,2] + r[9,2] <= 0
 mccormick2[9,3]: - y[9,3] + r[9,3] <= 0
 mccormick2[9,5]: - y[9,5] + r[9,5] <= 0
 mccormick2[9,6]: - y[9,6] + r[9,6] <= 0
 mccormick2[9,8]: - y[9,8] + r[9,8] <= 0
 mccormick3[0,1]: - y[0,1] - u[0,1] + r[0,1] >= -1
 mccormick3[0,2]: - y[0,2] - u[0,2] + r[0,2] >= -1
 mccormick3[0,3]: - y[0,3] - u[0,3] + r[0,3] >= -1
 mccormick3[0,4]: - y[0,4] - u[0,4] + r[0,4] >= -1
 mccormick3[0,5]: - y[0,5] - u[0,5] + r[0,5] >= -1
 mccormick3[0,6]: - y[0,6] - u[0,6] + r[0,6] >= -1
 mccormick3[0,7]: - y[0,7] - u[0,7] + r[0,7] >= -1
 mccormick3[0,8]: - y[0,8] - u[0,8] + r[0,8] >= -1
 mccormick3[0,9]: - y[0,9] - u[0,9] + r[0,9] >= -1
 mccormick3[1,0]: - y[1,0] - u[1,0] + r[1,0] >= -1
 mccormick3[1,2]: - y[1,2] - u[1,2] + r[1,2] >= -1
 mccormick3[1,3]: - y[1,3] - u[1,3] + r[1,3] >= -1
 mccormick3[1,4]: - y[1,4] - u[1,4] + r[1,4] >= -1
 mccormick3[1,5]: - y[1,5] - u[1,5] + r[1,5] >= -1
 mccormick3[1,6]: - y[1,6] - u[1,6] + r[1,6] >= -1
 mccormick3[1,7]: - y[1,7] - u[1,7] + r[1,7] >= -1
 mccormick3[1,8]: - y[1,8] - u[1,8] + r[1,8] >= -1
 mccormick3[1,9]: - y[1,9] - u[1,9] + r[1,9] >= -1
 mccormick3[2,0]: - y[2,0] - u[2,0] + r[2,0] >= -1
 mccormick3[2,1]: - y[2,1] - u[2,1] + r[2,1] >= -1
 mccormick3[2,3]: - y[2,3] - u[2,3] + r[2,3] >= -1
 mccormick3[2,4]: - y[2,4] - u[2,4] + r[2,4] >= -1
 mccormick3[2,5]: - y[2,5] - u[2,5] + r[2,5] >= -1
 mccormick3[2,6]: - y[2,6] - u[2,6] + r[2,6] >= -1
 mccormick3[2,7]: - y[2,7] - u[2,7] + r[2,7] >= -1
 mccormick3[2,9]: - y[2,9] - u[2,9] + r[2,9] >= -1
 mccormick3[3,0]: - y[3,0] - u[3,0] + r[3,0] >= -1
 mccormick3[3,1]: - y[3,1] - u[3,1] + r[3,1] >= -1
 mccormick3[3,2]: - y[3,2] - u[3,2] + r[3,2] >= -1
 mccormick3[3,4]: - y[3,4] - u[3,4] + r[3,4] >= -1
 mccormick3[3,5]: - y[3,5] - u[3,5] + r[3,5] >= -1
 mccormick3[3,6]: - y[3,6] - u[3,6] + r[3,6] >= -1
 mccormick3[3,8]: - y[3,8] - u[3,8] + r[3,8] >= -1
 mccormick3[3,9]: - y[3,9] - u[3,9] + r[3,9] >= -1
 mccormick3[4,0]: - y[4,0] - u[4,0] + r[4,0] >= -1
 mccormick3[4,1]: - y[4,1] - u[4,1] + r[4,1] >= -1
 mccormick3[4,2]: - y[4,2] - u[4,2] + r[4,2] >= -1
 mccormick3[4,3]: - y[4,3] - u[4,3] + r[4,3] >= -1
 mccormick3[4,5]: - y[4,5] - u[4,5] + r[4,5] >= -1
 mccormick3[4,6]: - y[4,6] - u[4,6] + r[4,6] >= -1
 mccormick3[4,7]: - y[4,7] - u[4,7] + r[4,7] >= -1
 mccormick3[5,0]: - y[5,0] - u[5,0] + r[5,0] >= -1
 mccormick3[5,1]: - y[5,1] - u[5,1] + r[5,1] >= -1
 mccormick3[5,2]: - y[5,2] - u[5,2] + r[5,2] >= -1
 mccormick3[5,3]: - y[5,3] - u[5,3] + r[5,3] >= -1
 mccormick3[5,4]: - y[5,4] - u[5,4] + r[5,4] >= -1
 mccormick3[5,6]: - y[5,6] - u[5,6] + r[5,6] >= -1
 mccormick3[5,9]: - y[5,9] - u[5,9] + r[5,9] >= -1
 mccormick3[6,0]: - y[6,0] - u[6,0] + r[6,0] >= -1
 mccormick3[6,1]: - y[6,1] - u[6,1] + r[6,1] >= -1
 mccormick3[6,2]: - y[6,2] - u[6,2] + r[6,2] >= -1
 mccormick3[6,3]: - y[6,3] - u[6,3] + r[6,3] >= -1
 mccormick3[6,4]: - y[6,4] - u[6,4] + r[6,4] >= -1
 mccormick3[6,5]: - y[6,5] - u[6,5] + r[6,5] >= -1
 mccormick3[6,8]: - y[6,8] - u[6,8] + r[6,8] >= -1
 mccormick3[6,9]: - y[6,9] - u[6,9] + r[6,9] >= -1
 mccormick3[7,0]: - y[7,0] - u[7,0] + r[7,0] >= -1
 mccormick3[7,1]: - y[7,1] - u[7,1] + r[7,1] >= -1
 mccormick3[7,2]: - y[7,2] - u[7,2] + r[7,2] >= -1
 mccormick3[7,4]: - y[7,4] - u[7,4] + r[7,4] >= -1
 mccormick3[8,0]: - y[8,0] - u[8,0] + r[8,0] >= -1
 mccormick3[8,1]: - y[8,1] - u[8,1] + r[8,1] >= -1
 mccormick3[8,3]: - y[8,3] - u[8,3] + r[8,3] >= -1
 mccormick3[8,6]: - y[8,6] - u[8,6] + r[8,6] >= -1
 mccormick3[8,9]: - y[8,9] - u[8,9] + r[8,9] >= -1
 mccormick3[9,0]: - y[9,0] - u[9,0] + r[9,0] >= -1
 mccormick3[9,1]: - y[9,1] - u[9,1] + r[9,1] >= -1
 mccormick3[9,2]: - y[9,2] - u[9,2] + r[9,2] >= -1
 mccormick3[9,3]: - y[9,3] - u[9,3] + r[9,3] >= -1
 mccormick3[9,5]: - y[9,5] - u[9,5] + r[9,5] >= -1
 mccormick3[9,6]: - y[9,6] - u[9,6] + r[9,6] >= -1
 mccormick3[9,8]: - y[9,8] - u[9,8] + r[9,8] >= -1
Bounds
Binaries
 y[0,1] y[0,2] y[0,3] y[0,4] y[0,5] y[0,6] y[0,7] y[0,8] y[0,9] y[1,0]
 y[1,2] y[1,3] y[1,4] y[1,5] y[1,6] y[1,7] y[1,8] y[1,9] y[2,0] y[2,1]
 y[2,3] y[2,4] y[2,5] y[2,6] y[2,7] y[2,9] y[3,0] y[3,1] y[3,2] y[3,4]
 y[3,5] y[3,6] y[3,8] y[3,9] y[4,0] y[4,1] y[4,2] y[4,3] y[4,5] y[4,6]
 y[4,7] y[5,0] y[5,1] y[5,2] y[5,3] y[5,4] y[5,6] y[5,9] y[6,0] y[6,1]
 y[6,2] y[6,3] y[6,4] y[6,5] y[6,8] y[6,9] y[7,0] y[7,1] y[7,2] y[7,4]
 y[8,0] y[8,1] y[8,3] y[8,6] y[8,9] y[9,0] y[9,1] y[9,2] y[9,3] y[9,5]
 y[9,6] y[9,8] u[0,1] u[0,2] u[0,3] u[0,4] u[0,5] u[0,6] u[0,7] u[0,8]
 u[0,9] u[1,0] u[1,2] u[1,3] u[1,4] u[1,5] u[1,6] u[1,7] u[1,8] u[1,9]
 u[2,0] u[2,1] u[2,3] u[2,4] u[2,5] u[2,6] u[2,7] u[2,9] u[3,0] u[3,1]
 u[3,2] u[3,4] u[3,5] u[3,6] u[3,8] u[3,9] u[4,0] u[4,1] u[4,2] u[4,3]
 u[4,5] u[4,6] u[4,7] u[5,0] u[5,1] u[5,2] u[5,3] u[5,4] u[5,6] u[5,9]
 u[6,0] u[6,1] u[6,2] u[6,3] u[6,4] u[6,5] u[6,8] u[6,9] u[7,0] u[7,1]
 u[7,2] u[7,4] u[8,0] u[8,1] u[8,3] u[8,6] u[8,9] u[9,0] u[9,1] u[9,2]
 u[9,3] u[9,5] u[9,6] u[9,8] r[0,1] r[0,2] r[0,3] r[0,4] r[0,5] r[0,6]
 r[0,7] r[0,8] r[0,9] r[1,0] r[1,2] r[1,3] r[1,4] r[1,5] r[1,6] r[1,7]
 r[1,8] r[1,9] r[2,0] r[2,1] r[2,3] r[2,4] r[2,5] r[2,6] r[2,7] r[2,9]
 r[3,0] r[3,1] r[3,2] r[3,4] r[3,5] r[3,6] r[3,8] r[3,9] r[4,0] r[4,1]
 r[4,2] r[4,3] r[4,5] r[4,6] r[4,7] r[5,0] r[5,1] r[5,2] r[5,3] r[5,4]
 r[5,6] r[5,9] r[6,0] r[6,1] r[6,2] r[6,3] r[6,4] r[6,5] r[6,8] r[6,9]
 r[7,0] r[7,1] r[7,2] r[7,4] r[8,0] r[8,1] r[8,3] r[8,6] r[8,9] r[9,0]
 r[9,1] r[9,2] r[9,3] r[9,5] r[9,6] r[9,8]
End
